9
0 34 44 25 57 32 37 51 40 
34 0 44 14 21 48 50 20 32 
44 44 0 37 55 40 43 18 56 
25 14 37 0 40 56 10 51 33 
57 21 55 40 0 14 15 26 42 
32 48 40 56 14 0 47 27 10 
37 50 43 10 15 47 0 35 51 
51 20 18 51 26 27 35 0 16 
40 32 56 33 42 10 51 16 0 
